!!! Generated by AiiDA !!!
&FORCE_EVAL
   &DFT
      BASIS_SET_FILE_NAME GTH_BASIS_SETS
      &MGRID
         CUTOFF 400
      &END MGRID
      POTENTIAL_FILE_NAME POTENTIAL
      &QS
         EPS_DEFAULT 1e-12
         EPS_PGF_ORB 1e-14
         EXTRAPOLATION USE_GUESS
         EXTRAPOLATION_ORDER 5
      &END QS
      &SCF
         EPS_SCF 5e-07
         MAX_SCF 50
         &OT
            MINIMIZER DIIS
            PRECONDITIONER FULL_ALL
         &END OT
         &OUTER_SCF
            EPS_SCF 5e-07
            MAX_SCF 20
         &END OUTER_SCF
         SCF_GUESS RESTART
      &END SCF
      &XC
         &VDW_POTENTIAL
            &PAIR_POTENTIAL
               LONG_RANGE_CORRECTION TRUE
               PARAMETER_FILE_NAME dftd3.dat
               REFERENCE_FUNCTIONAL revPBE
               R_CUTOFF 15
               TYPE DFTD3
            &END PAIR_POTENTIAL
            POTENTIAL_TYPE PAIR_POTENTIAL
         &END VDW_POTENTIAL
         &XC_FUNCTIONAL
            &PBE
               PARAMETRIZATION REVPBE
            &END PBE
         &END XC_FUNCTIONAL
         &XC_GRID
            XC_DERIV SPLINE2
         &END XC_GRID
      &END XC
   &END DFT
   METHOD Quickstep
   &PRINT
      &FORCES ON
      &END FORCES
   &END PRINT
   &SUBSYS
      &CELL
         A 10.442           0.0              0.0            
         B -0.07813377936195484  17.90682953826619  0.0            
         C -1.8997627468294171  2.891371522103422  14.441377089008114
      &END CELL
      &KIND O
         BASIS_SET TZV2P-GTH
         POTENTIAL GTH-PBE-q6
      &END KIND
      &KIND H
         BASIS_SET TZV2P-GTH
         POTENTIAL GTH-PBE-q1
      &END KIND
      &KIND Al
         BASIS_SET DZVP-GTH
         POTENTIAL GTH-PBE-q3
      &END KIND
      &KIND Si
         BASIS_SET DZVP-GTH
         POTENTIAL GTH-PBE-q4
      &END KIND
      &TOPOLOGY
         COORD_FILE_FORMAT XYZ
         COORD_FILE_NAME kaolinite_lowC.xyz
      &END TOPOLOGY
   &END SUBSYS
&END FORCE_EVAL
&GLOBAL
   PROJECT aiida
   RUN_TYPE MD
&END GLOBAL
&MOTION
   &MD
      ENSEMBLE NVT
      STEPS 10000
      TEMPERATURE 300
      &THERMOSTAT
         &NOSE
            TIMECON 100
         &END NOSE
      &END THERMOSTAT
      TIMESTEP 0.25
   &END MD
   &PRINT
      &CELL ON
      &END CELL
      &FORCES ON
      &END FORCES
      &RESTART
         BACKUP_COPIES 3
         &EACH
            MD 1
         &END EACH
      &END RESTART
      &RESTART_HISTORY
         &EACH
            MD 100
         &END EACH
      &END RESTART_HISTORY
      &TRAJECTORY
         &EACH
            MD 1
         &END EACH
      &END TRAJECTORY
      &VELOCITIES ON
      &END VELOCITIES
   &END PRINT
&END MOTION
